(define-fun
  j0
  () Int (* 2 (+ 2 2)))
(define-fun
  h3
  ((x Int) (y Int)) Int y)
(define-fun
  h0
  ((x Int)) Int x)
(define-fun
  g4
  ((x Int)) Int x)
(define-fun
  g2
  ((x Int)) Int x)
(define-fun
  g1
  ((x Int)) Int x)
(define-fun
  g0
  ((x Int) (y Int)) Int (+ 1 y))
(define-funs-rec
  ((v0
    ((x Int) (y Int) (z Int)) Int)
   (u0
    ((x Int) (y Int) (z Int)) Int))
  ((ite (<= x 0) z (g0 (u0 (- x 1) y z) (v0 (- x 1) y z)))
   (ite (<= x 0) y (* (u0 (- x 1) y z) (v0 (- x 1) y z)))))
(define-fun
  w0
  ((x Int)) Int (u0 x 1 j0))
(define-fun
  f4
  ((x Int) (y Int)) Int (div (+ (* (+ 2 y) x) x) y))
(define-fun-rec
  u4
  ((x Int) (y Int)) Int (ite (<= x 0) y (f4 (u4 (- x 1) y) x)))
(define-fun
  v4
  ((x Int)) Int (u4 x 2))
(define-fun
  f3
  ((x Int) (y Int)) Int (+ 2 (+ x y)))
(define-fun-rec
  u3
  ((x Int) (y Int)) Int (ite (<= x 0) y (f3 (u3 (- x 1) y) x)))
(define-fun
  v3
  ((x Int) (y Int)) Int (u3 2 y))
(define-fun
  f2
  ((x Int) (y Int)) Int (div (* (v3 x y) x) y))
(define-fun-rec
  u2
  ((x Int) (y Int)) Int (ite (<= x 0) y (f2 (u2 (- x 1) y) x)))
(define-fun
  v2
  ((x Int)) Int (u2 x 2))
(define-fun
  fast
  ((x Int)) Int (div (v2 x) (v4 x)))
(define-fun
  f1
  ((x Int) (y Int)) Int (+ (* (+ 2 y) x) x))
(define-fun-rec
  u1
  ((x Int) (y Int)) Int (ite (<= x 0) y (f1 (u1 (- x 1) y) x)))
(define-fun
  v1
  ((x Int)) Int (u1 x 1))
(define-fun
  small
  ((x Int)) Int (div (w0 x) (v1 x)))
(assert-not
  (forall ((c Int)) (or (not (>= c 0)) (= (small c) (fast c)))))
